p cnf 1435 2252
71 -72 84 101 0
71 -72 84 -101 0
-9 -12 22 102 0
22 48 80 -102 0
61 68 77 103 0
77 79 -103 104 0
79 84 95 -104 0
-15 -24 35 105 0
35 36 -105 106 0
36 43 -106 107 0
43 -53 -107 108 0
-53 -80 -108 109 0
-80 88 97 -109 0
-7 26 -31 110 0
-31 42 -110 111 0
42 -59 -111 112 0
-59 64 -84 -112 0
-1 42 46 -75 0
-15 -28 47 113 0
47 -59 84 -113 0
-30 49 82 114 0
-30 49 82 -114 0
27 37 51 115 0
51 -57 -115 116 0
-57 60 -116 117 0
60 78 -80 -117 0
-16 36 65 118 0
-16 36 65 -118 0
-4 -18 26 119 0
26 -28 -78 -119 0
10 98 99 120 0
10 98 99 -120 0
40 82 121 122 0
40 82 121 -122 0
40 82 -121 122 0
40 82 -121 -122 0
-22 33 123 124 0
-22 33 123 -124 0
-22 33 -123 124 0
-22 33 -123 -124 0
5 -20 -25 125 0
-25 -29 -125 126 0
-29 42 -126 127 0
42 47 -127 128 0
47 -60 -128 129 0
-60 64 -129 130 0
64 -86 90 -130 0
7 -14 -82 131 0
7 -14 -82 -131 0
25 -35 -46 -83 0
24 26 44 132 0
44 80 -132 133 0
80 -83 90 -133 0
10 -41 134 135 0
10 -41 134 -135 0
10 -41 -134 135 0
10 -41 -134 -135 0
49 52 -79 85 0
-35 38 -48 99 0
22 23 54 136 0
22 23 54 -136 0
21 27 42 137 0
42 57 -137 138 0
57 64 -69 -138 0
-4 -21 -81 139 0
-4 -21 -81 -139 0
13 18 27 140 0
27 -39 -140 141 0
-39 -80 83 -141 0
1 3 -24 142 0
-24 -26 -142 143 0
-26 35 -143 144 0
35 -41 -144 145 0
-41 -45 -94 -145 0
44 49 -64 -90 0
2 29 -64 -93 0
18 74 146 147 0
18 74 146 -147 0
18 74 -146 147 0
18 74 -146 -147 0
-41 -51 -74 148 0
-74 81 -87 -148 0
7 10 -17 149 0
-17 23 -149 150 0
23 75 -79 -150 0
26 40 41 -76 0
-16 -20 48 151 0
48 49 -151 152 0
49 -56 -152 153 0
-56 -61 -67 -153 0
3 5 22 154 0
22 -35 -154 155 0
-35 42 -155 156 0
42 -43 -156 157 0
-43 -80 -157 158 0
-80 89 -92 -158 0
14 -25 -57 159 0
-57 -63 -76 -159 0
42 49 -50 160 0
-50 88 -98 -160 0
-11 -31 36 161 0
36 -43 -161 162 0
-43 -58 -162 163 0
-58 -62 -163 164 0
-62 -67 -97 -164 0
34 -60 -74 165 0
-74 -78 -165 166 0
-78 -82 92 -166 0
45 52 -63 167 0
-63 -92 94 -167 0
22 -35 -62 168 0
-62 -65 78 -168 0
-3 -27 74 169 0
74 -79 -169 170 0
-79 86 87 -170 0
-5 31 -41 171 0
-41 61 -171 172 0
61 63 -172 173 0
63 76 -173 174 0
76 77 -174 175 0
77 93 97 -175 0
56 69 72 176 0
72 74 -88 -176 0
-4 -45 -68 -74 0
-3 -14 57 177 0
57 58 -177 178 0
58 -64 85 -178 0
16 54 80 -93 0
16 -37 45 179 0
45 67 73 -179 0
-9 -28 41 180 0
41 -82 -89 -180 0
73 -86 181 182 0
73 -86 181 -182 0
73 -86 -181 182 0
73 -86 -181 -182 0
-11 -14 -35 183 0
-35 -47 -183 184 0
-47 71 -184 185 0
71 72 -83 -185 0
13 45 -50 186 0
-50 57 -186 187 0
57 84 -187 188 0
84 -85 -96 -188 0
-22 25 -34 189 0
-34 -37 -189 190 0
-37 -73 -190 191 0
-73 -78 -191 192 0
-78 84 85 -192 0
16 -31 35 93 0
-1 -4 -82 87 0
-6 16 69 193 0
69 -91 100 -193 0
3 15 39 194 0
39 -40 -194 195 0
-40 57 -195 196 0
57 58 -196 197 0
58 69 -197 198 0
69 77 -198 199 0
77 -85 -92 -199 0
3 -9 -53 200 0
-53 57 -200 201 0
57 -65 -201 202 0
-65 68 -69 -202 0
-10 -14 -26 203 0
-26 -69 85 -203 0
4 88 204 205 0
4 88 204 -205 0
4 88 -204 205 0
4 88 -204 -205 0
50 -63 80 206 0
50 -63 80 -206 0
15 -46 -55 87 0
-59 -61 67 207 0
-59 -61 67 -207 0
23 24 -33 208 0
-33 -56 -208 209 0
-56 -62 97 -209 0
17 34 44 210 0
44 45 -210 211 0
45 -48 -211 212 0
-48 -58 -212 213 0
-58 73 -84 -213 0
-26 29 -35 214 0
-35 38 93 -214 0
-31 47 87 215 0
-31 47 87 -215 0
37 -44 53 216 0
53 -60 -216 217 0
-60 84 93 -217 0
-4 22 218 219 0
-4 22 218 -219 0
-4 22 -218 219 0
-4 22 -218 -219 0
13 -17 -39 220 0
-39 42 -220 221 0
42 48 -221 222 0
48 -55 -222 223 0
-55 -58 -223 224 0
-58 79 -87 -224 0
-6 19 -24 225 0
-24 -40 -225 226 0
-40 43 -226 227 0
43 -46 -76 -227 0
-12 -21 32 228 0
32 -33 -228 229 0
-33 -51 -229 230 0
-51 -91 94 -230 0
39 78 90 231 0
39 78 90 -231 0
43 70 -98 100 0
-7 -33 88 232 0
-7 -33 88 -232 0
-26 41 -78 233 0
-26 41 -78 -233 0
-6 -48 234 235 0
-6 -48 234 -235 0
-6 -48 -234 235 0
-6 -48 -234 -235 0
-16 -25 45 236 0
45 -59 -236 237 0
-59 -71 100 -237 0
1 -39 -53 238 0
-53 59 -238 239 0
59 66 -239 240 0
66 93 -97 -240 0
25 -93 241 242 0
25 -93 241 -242 0
25 -93 -241 242 0
25 -93 -241 -242 0
-87 100 243 244 0
-87 100 243 -244 0
-87 100 -243 244 0
-87 100 -243 -244 0
10 -38 54 245 0
54 69 -245 246 0
69 -75 -246 247 0
-75 -85 92 -247 0
17 -18 -40 248 0
-40 64 100 -248 0
-30 -41 -46 249 0
-30 -41 -46 -249 0
-24 -79 250 251 0
-24 -79 250 -251 0
-24 -79 -250 251 0
-24 -79 -250 -251 0
20 -33 -48 252 0
20 -33 -48 -252 0
-4 -22 25 253 0
25 -35 -253 254 0
-35 50 68 -254 0
-32 -44 -50 255 0
-50 73 -255 256 0
73 78 -256 257 0
78 94 96 -257 0
35 75 80 95 0
-13 27 -29 -49 0
35 -36 48 93 0
1 17 19 258 0
19 -41 -258 259 0
-41 44 -259 260 0
44 46 -67 -260 0
24 -29 57 261 0
57 68 -261 262 0
68 -70 -74 -262 0
-2 -41 45 263 0
45 -62 75 -263 0
19 -29 -67 264 0
19 -29 -67 -264 0
-18 -27 33 265 0
33 -87 -99 -265 0
-3 27 29 82 0
37 50 -70 266 0
-70 -79 -266 267 0
-79 -86 90 -267 0
-12 -41 -52 268 0
-52 -69 -268 269 0
-69 72 -87 -269 0
-30 -62 270 271 0
-30 -62 270 -271 0
-30 -62 -270 271 0
-30 -62 -270 -271 0
-10 21 -63 272 0
-63 83 -272 273 0
83 -88 91 -273 0
-9 14 -27 274 0
-27 45 -274 275 0
45 -55 -275 276 0
-55 59 -276 277 0
59 62 -277 278 0
62 -64 -278 279 0
-64 -73 -99 -279 0
48 53 60 280 0
48 53 60 -280 0
54 92 281 282 0
54 92 281 -282 0
54 92 -281 282 0
54 92 -281 -282 0
-3 -20 -57 283 0
-57 67 -283 284 0
67 85 -284 285 0
85 92 93 -285 0
36 44 47 286 0
47 54 -286 287 0
54 -87 90 -287 0
18 -24 -41 288 0
-41 -43 -82 -288 0
27 -44 -49 289 0
-49 52 -289 290 0
52 66 -290 291 0
66 -77 99 -291 0
-17 35 38 292 0
38 44 -60 -292 0
-22 -51 -77 92 0
-7 42 -44 293 0
-44 77 88 -293 0
30 51 52 93 0
32 47 59 294 0
59 81 90 -294 0
46 -49 91 295 0
46 -49 91 -295 0
14 -31 -75 -79 0
-10 -14 -26 83 0
-5 7 -8 296 0
-8 18 -296 297 0
18 -22 -297 298 0
-22 -25 -298 299 0
-25 29 -299 300 0
29 -65 87 -300 0
28 52 55 301 0
55 58 -61 -301 0
67 -78 -89 302 0
67 -78 -89 -302 0
4 -16 18 303 0
18 22 -303 304 0
22 68 -304 305 0
68 86 -91 -305 0
-1 23 27 306 0
27 39 -306 307 0
39 -56 -307 308 0
-56 -95 100 -308 0
-40 -59 76 309 0
-40 -59 76 -309 0
-20 69 79 -88 0
4 65 69 -72 0
1 4 6 310 0
6 -20 -36 -310 0
-3 -16 69 311 0
69 -84 95 -311 0
-1 -43 -48 312 0
-48 -55 -312 313 0
-55 -74 -98 -313 0
-18 80 85 -88 0
7 69 -71 314 0
-71 -74 -95 -314 0
26 50 -60 315 0
26 50 -60 -315 0
1 -16 54 62 0
14 100 316 317 0
14 100 316 -317 0
14 100 -316 317 0
14 100 -316 -317 0
68 -77 98 318 0
68 -77 98 -318 0
-12 59 -71 319 0
-71 75 -319 320 0
75 77 -320 321 0
77 -80 88 -321 0
-34 69 75 322 0
-34 69 75 -322 0
-1 -5 -9 323 0
-9 36 -60 -323 0
-38 -48 59 60 0
-12 19 24 324 0
24 -29 -324 325 0
-29 39 -325 326 0
39 -60 73 -326 0
4 13 56 327 0
56 90 -95 -327 0
3 -9 29 328 0
29 76 -328 329 0
76 -78 -329 330 0
-78 -83 -330 331 0
-83 87 93 -331 0
30 47 -65 332 0
-65 -78 -332 333 0
-78 82 -333 334 0
82 94 -97 -334 0
-15 -35 -38 -54 0
-2 -32 -41 -61 0
20 31 -32 335 0
-32 -42 -335 336 0
-42 -45 -336 337 0
-45 48 -337 338 0
48 -56 -58 -338 0
-15 30 52 339 0
52 -75 -79 -339 0
13 -23 -31 340 0
-31 -36 -340 341 0
-36 -68 81 -341 0
-6 -59 -61 85 0
-14 18 -70 342 0
-70 -73 -98 -342 0
10 15 74 343 0
10 15 74 -343 0
-22 -62 87 344 0
-22 -62 87 -344 0
2 68 345 346 0
2 68 345 -346 0
2 68 -345 346 0
2 68 -345 -346 0
34 68 -82 -97 0
14 15 -27 347 0
-27 -57 -347 348 0
-57 -69 86 -348 0
11 14 16 349 0
16 48 -349 350 0
48 86 -92 -350 0
20 23 24 351 0
24 -56 -351 352 0
-56 58 -352 353 0
58 -78 -353 354 0
-78 82 -97 -354 0
10 -80 100 355 0
10 -80 100 -355 0
8 -54 74 -88 0
-13 16 -65 97 0
29 -81 356 357 0
29 -81 356 -357 0
29 -81 -356 357 0
29 -81 -356 -357 0
5 7 9 358 0
9 44 -358 359 0
44 -53 -359 360 0
-53 56 -360 361 0
56 76 77 -361 0
3 8 -50 86 0
32 -41 -53 362 0
-53 -81 -94 -362 0
-5 64 75 363 0
-5 64 75 -363 0
-14 23 33 364 0
33 -63 69 -364 0
-3 59 78 79 0
-2 -35 -55 365 0
-55 66 -365 366 0
66 -71 -366 367 0
-71 -90 -367 368 0
-90 92 97 -368 0
1 37 100 369 0
1 37 100 -369 0
-7 -29 -39 370 0
-39 82 -370 371 0
82 84 -99 -371 0
-2 -25 -40 372 0
-2 -25 -40 -372 0
19 58 373 374 0
19 58 373 -374 0
19 58 -373 374 0
19 58 -373 -374 0
-84 -97 375 376 0
-84 -97 375 -376 0
-84 -97 -375 376 0
-84 -97 -375 -376 0
-16 -18 -41 377 0
-41 43 -44 -377 0
22 60 -61 378 0
-61 -75 85 -378 0
-3 34 61 379 0
61 70 -379 380 0
70 -82 -86 -380 0
55 -58 381 382 0
55 -58 381 -382 0
55 -58 -381 382 0
55 -58 -381 -382 0
45 56 67 383 0
67 70 99 -383 0
24 -38 42 384 0
42 -53 -58 -384 0
7 -14 -23 385 0
-23 -40 -45 -385 0
7 63 64 386 0
64 -80 -386 387 0
-80 84 86 -387 0
9 10 -25 388 0
-25 -28 -388 389 0
-28 55 92 -389 0
12 -27 -36 390 0
-36 -73 -98 -390 0
-8 20 -21 391 0
-21 87 90 -391 0
-12 14 15 392 0
15 -17 -392 393 0
-17 19 -393 394 0
19 20 -394 395 0
20 -22 -395 396 0
-22 -27 87 -396 0
-7 73 -79 -91 0
-65 86 397 398 0
-65 86 397 -398 0
-65 86 -397 398 0
-65 86 -397 -398 0
-16 -25 37 399 0
37 48 -66 -399 0
-50 58 59 400 0
59 78 93 -400 0
11 -29 64 -100 0
3 -43 48 401 0
48 65 -93 -401 0
-13 -21 49 86 0
-1 -40 46 402 0
46 68 -402 403 0
68 82 -97 -403 0
1 -12 23 404 0
23 -62 -69 -404 0
-35 -40 87 405 0
-35 -40 87 -405 0
4 -18 -21 406 0
-21 31 -406 407 0
31 57 89 -407 0
6 70 77 408 0
77 86 -408 409 0
86 88 93 -409 0
-24 -33 44 410 0
44 45 -410 411 0
45 52 -411 412 0
52 -62 -412 413 0
-62 -89 97 -413 0
-16 35 -40 414 0
-40 51 -414 415 0
51 -68 -415 416 0
-68 73 -93 -416 0
-10 51 55 -84 0
-24 -37 56 417 0
56 -68 93 -417 0
-39 58 91 418 0
-39 58 91 -418 0
36 46 60 419 0
60 -66 -419 420 0
-66 69 -420 421 0
69 87 -89 -421 0
-25 45 74 422 0
-25 45 74 -422 0
7 8 -13 423 0
-13 -27 -423 424 0
-27 35 -424 425 0
35 -37 -87 -425 0
49 91 426 427 0
49 91 426 -427 0
49 91 -426 427 0
49 91 -426 -427 0
-31 42 428 429 0
-31 42 428 -429 0
-31 42 -428 429 0
-31 42 -428 -429 0
14 -29 -34 430 0
-34 -38 -430 431 0
-38 51 -431 432 0
51 56 -432 433 0
56 -69 -433 434 0
-69 73 -434 435 0
73 -95 99 -435 0
16 -23 -91 436 0
16 -23 -91 -436 0
34 -44 -55 -92 0
33 35 53 437 0
53 89 -437 438 0
89 -92 99 -438 0
19 -50 439 440 0
19 -50 439 -440 0
19 -50 -439 440 0
19 -50 -439 -440 0
8 58 61 441 0
61 -88 94 -441 0
-44 47 -57 442 0
-44 47 -57 -442 0
31 32 63 443 0
31 32 63 -443 0
30 36 51 444 0
51 66 -444 445 0
66 73 -78 -445 0
-13 -30 -90 446 0
-13 -30 -90 -446 0
-3 22 27 447 0
27 36 -447 448 0
36 -48 -448 449 0
-48 -89 92 -449 0
10 12 -33 450 0
-33 -35 -450 451 0
-35 44 -451 452 0
44 -50 -54 -452 0
-2 53 58 453 0
58 -73 -99 -453 0
11 38 -73 454 0
11 38 -73 -454 0
27 83 455 456 0
27 83 455 -456 0
27 83 -455 456 0
27 83 -455 -456 0
-50 -60 -83 457 0
-83 90 -96 -457 0
16 19 -26 458 0
-26 32 -458 459 0
32 84 -88 -459 0
35 49 50 -85 0
-1 -25 -29 460 0
-29 57 -460 461 0
57 58 -461 462 0
58 -65 -462 463 0
-65 -70 -76 -463 0
12 14 31 464 0
31 -44 -464 465 0
-44 51 -465 466 0
51 -52 -466 467 0
-52 -89 98 -467 0
-7 23 -34 468 0
-34 -66 -468 469 0
-66 -72 -85 -469 0
-6 51 58 470 0
58 -59 97 -470 0
1 -20 -40 471 0
-40 45 -471 472 0
45 -52 -472 473 0
-52 -67 -473 474 0
-67 -71 -76 -474 0
-1 3 43 475 0
43 -69 -475 476 0
-69 -83 -476 477 0
-83 -87 -91 -477 0
54 61 -72 478 0
54 61 -72 -478 0
31 -44 -71 479 0
-71 -74 87 -479 0
2 6 -12 480 0
-12 -36 -480 481 0
-36 83 -481 482 0
83 -88 -482 483 0
-88 95 96 -483 0
-14 40 -50 484 0
-50 70 -484 485 0
70 72 -485 486 0
72 85 86 -486 0
65 78 81 487 0
81 83 -97 -487 0
-13 -54 -77 -83 0
-2 -12 -23 488 0
-23 66 -488 489 0
66 67 -489 490 0
67 -73 94 -490 0
25 63 89 491 0
25 63 89 -491 0
25 -46 54 492 0
54 76 82 -492 0
-18 -37 50 493 0
50 -91 -98 -493 0
82 -95 494 495 0
82 -95 494 -495 0
82 -95 -494 495 0
82 -95 -494 -495 0
-5 -20 -23 496 0
-23 -44 -496 497 0
-44 -56 -497 498 0
-56 80 -498 499 0
80 81 -92 -499 0
22 54 -59 500 0
-59 66 -500 501 0
66 93 -94 -501 0
2 -31 34 502 0
34 -43 -502 503 0
-43 -46 -503 504 0
-46 -82 -504 505 0
-82 -87 -505 506 0
-87 93 94 -506 0
25 -40 44 507 0
25 -40 44 -507 0
9 -10 -13 508 0
-13 -91 96 -508 0
-15 25 78 -100 0
-1 -40 509 510 0
-1 -40 509 -510 0
-1 -40 -509 510 0
-1 -40 -509 -510 0
12 24 48 511 0
48 -49 -511 512 0
-49 66 -512 513 0
66 67 -513 514 0
67 78 -514 515 0
78 86 -94 -515 0
12 -18 -62 516 0
-62 66 -516 517 0
66 -74 -517 518 0
-74 77 -78 -518 0
-19 -23 -35 519 0
-35 -78 94 -519 0
13 97 520 521 0
13 97 520 -521 0
13 97 -520 521 0
13 97 -520 -521 0
59 -72 89 522 0
59 -72 89 -522 0
24 -55 -64 96 0
6 -68 -70 76 0
32 33 -42 523 0
-42 -65 -71 -523 0
2 26 43 524 0
43 53 -524 525 0
53 54 -525 526 0
54 -57 -526 527 0
-57 -67 -527 528 0
-67 82 -93 -528 0
-35 38 -44 47 0
2 -40 56 96 0
46 -53 62 529 0
62 -69 93 -529 0
-13 31 530 531 0
-13 31 530 -531 0
-13 31 -530 531 0
-13 31 -530 -531 0
22 -26 -48 532 0
-48 51 -532 533 0
51 57 -533 534 0
57 -64 -534 535 0
-64 -67 -535 536 0
-67 88 -96 -536 0
3 -15 28 537 0
28 -33 -537 538 0
-33 -49 -538 539 0
-49 52 -539 540 0
52 -55 -85 -540 0
-21 -30 41 541 0
41 -42 -541 542 0
-42 -60 -100 -542 0
-7 9 48 543 0
48 87 99 -543 0
52 79 544 545 0
52 79 544 -545 0
52 79 -544 545 0
52 79 -544 -545 0
-16 -42 97 546 0
-16 -42 97 -546 0
-35 50 -87 547 0
-35 50 -87 -547 0
9 -15 -57 548 0
9 -15 -57 -548 0
2 -6 -25 549 0
-25 -34 -549 550 0
-34 54 -550 551 0
54 -68 -80 -551 0
-2 10 -48 552 0
-48 -62 -552 553 0
-62 68 75 -553 0
9 34 554 555 0
9 34 554 -555 0
9 34 -554 555 0
9 34 -554 -555 0
1 -96 556 557 0
1 -96 556 -557 0
1 -96 -556 557 0
1 -96 -556 -557 0
9 19 -47 558 0
-47 63 -558 559 0
63 78 -559 560 0
78 -84 -94 -560 0
26 -27 -49 73 0
-39 -50 -55 561 0
-39 -50 -55 -561 0
-33 -88 562 563 0
-33 -88 562 -563 0
-33 -88 -562 563 0
-33 -88 -562 -563 0
29 -42 -57 564 0
29 -42 -57 -564 0
3 5 -13 565 0
-13 -31 -565 566 0
-31 34 -566 567 0
34 -44 -567 568 0
-44 59 77 -568 0
4 -41 -53 569 0
-53 -59 -569 570 0
-59 82 87 -570 0
44 84 89 571 0
44 84 89 -571 0
2 -22 36 572 0
36 -38 -58 -572 0
44 -45 57 573 0
44 -45 57 -573 0
10 26 28 574 0
28 -50 -574 575 0
-50 53 -575 576 0
53 55 -76 -576 0
33 -38 66 577 0
66 77 -577 578 0
77 -79 -83 -578 0
-11 -50 54 579 0
54 -71 84 -579 0
-8 28 -38 -76 0
-27 -36 42 -96 0
-12 36 38 91 0
46 59 -79 580 0
-79 -88 -580 581 0
-88 -95 99 -581 0
-21 -50 -61 582 0
-61 -78 -582 583 0
-78 81 -96 -583 0
-39 -71 584 585 0
-39 -71 584 -585 0
-39 -71 -584 585 0
-39 -71 -584 -585 0
-8 -19 30 586 0
30 -72 -586 587 0
-72 92 -587 588 0
92 -97 100 -588 0
-18 23 -36 589 0
-36 54 -589 590 0
54 -64 -590 591 0
-64 68 -591 592 0
68 71 -592 593 0
71 -73 -82 -593 0
1 57 62 69 0
1 2 63 594 0
1 2 63 -594 0
-12 -29 -66 595 0
-66 76 94 -595 0
45 53 56 596 0
56 63 -596 597 0
63 -96 99 -597 0
8 27 -33 598 0
-33 -50 -598 599 0
-50 -52 -91 -599 0
36 -53 -58 600 0
-58 61 -600 601 0
61 75 -86 -601 0
1 -26 44 602 0
44 47 -602 603 0
47 53 -69 -603 0
-31 -60 -86 604 0
-31 -60 -86 -604 0
2 -16 51 605 0
51 -53 -605 606 0
-53 86 97 -606 0
39 60 61 607 0
39 60 61 -607 0
41 56 68 608 0
68 90 99 -608 0
55 -58 100 609 0
55 -58 100 -609 0
23 -40 -84 -88 0
-19 -23 -35 92 0
-14 16 -17 610 0
-17 27 -610 611 0
27 -31 -611 612 0
-31 -34 -612 613 0
-34 38 -613 614 0
38 -74 96 -614 0
37 61 64 615 0
64 67 -70 -615 0
76 -87 -98 616 0
76 -87 -98 -616 0
-4 9 13 617 0
13 -25 -617 618 0
-25 27 -618 619 0
27 31 -619 620 0
31 77 -620 621 0
77 95 -100 -621 0
-10 32 36 622 0
36 48 -65 -622 0
-49 -68 85 623 0
-49 -68 85 -623 0
-29 78 88 -97 0
13 74 78 -81 0
4 10 13 624 0
13 15 -624 625 0
15 -29 -45 -625 0
-7 -12 -25 626 0
-25 78 -93 -626 0
-10 -52 -57 627 0
-57 -64 -83 -627 0
-4 -27 89 628 0
89 94 -97 -628 0
16 78 -80 -83 0
35 59 -69 629 0
35 59 -69 -629 0
9 10 -25 630 0
-25 63 71 -630 0
7 23 631 632 0
7 23 631 -632 0
7 23 -631 632 0
7 23 -631 -632 0
77 -86 633 634 0
77 -86 633 -634 0
77 -86 -633 634 0
77 -86 -633 -634 0
-21 68 -80 635 0
-80 84 -635 636 0
84 86 -636 637 0
86 -89 97 -637 0
-43 78 84 638 0
-43 78 84 -638 0
-10 -14 -18 639 0
-18 45 -69 -639 0
-47 -57 68 69 0
-4 -21 28 640 0
28 33 -640 641 0
33 -38 -641 642 0
-38 48 -642 643 0
48 -69 82 -643 0
2 13 22 644 0
22 65 99 -644 0
3 -6 12 645 0
12 -18 -645 646 0
-18 38 -646 647 0
38 85 -647 648 0
85 -87 -648 649 0
-87 -92 96 -649 0
39 56 -74 650 0
-74 -87 91 -650 0
-24 -44 -47 -63 0
-11 -41 -50 -70 0
29 40 -41 651 0
-41 -51 -651 652 0
-51 -54 -652 653 0
-54 57 -653 654 0
57 -65 -67 -654 0
-24 39 61 655 0
61 -84 -88 -655 0
22 -32 -40 656 0
-40 -45 -656 657 0
-45 -77 90 -657 0
-15 -68 -70 94 0
-7 20 658 659 0
-7 20 658 -659 0
-7 20 -658 659 0
-7 20 -658 -659 0
-23 27 -79 -82 0
19 24 83 660 0
19 24 83 -660 0
-31 -71 96 661 0
-31 -71 96 -661 0
-6 11 77 662 0
-6 11 77 -662 0
1 43 77 -91 0
-1 23 24 663 0
24 -36 -663 664 0
-36 -66 -664 665 0
-66 -78 95 -665 0
-6 20 23 666 0
23 25 -666 667 0
25 57 95 -667 0
9 29 32 668 0
32 33 -668 669 0
33 -65 -669 670 0
-65 67 -670 671 0
67 -87 91 -671 0
19 -89 672 673 0
19 -89 672 -673 0
19 -89 -672 673 0
19 -89 -672 -673 0
6 17 -63 674 0
-63 83 -97 -674 0
-22 25 -74 675 0
-22 25 -74 -675 0
38 -90 676 677 0
38 -90 676 -677 0
38 -90 -676 677 0
38 -90 -676 -677 0
14 16 18 678 0
18 53 -678 679 0
53 -62 -679 680 0
-62 65 -680 681 0
65 85 86 -681 0
12 17 -59 95 0
-3 -13 682 683 0
-3 -13 682 -683 0
-3 -13 -682 683 0
-3 -13 -682 -683 0
41 -50 -62 -90 0
-14 73 84 684 0
-14 73 84 -684 0
-23 32 42 685 0
42 -72 78 -685 0
1 6 -12 686 0
-12 68 -686 687 0
68 87 88 -687 0
9 -11 -44 688 0
-44 -64 -688 689 0
-64 75 -689 690 0
75 -80 -99 -690 0
-8 10 46 691 0
-8 10 46 -691 0
-16 -38 -48 692 0
-48 91 93 -692 0
-11 -34 -49 693 0
-11 -34 -49 -693 0
-6 28 67 694 0
-6 28 67 -694 0
-25 -27 -50 695 0
-50 52 -53 -695 0
31 69 -70 696 0
-70 -84 94 -696 0
-12 43 70 697 0
70 79 -697 698 0
79 -91 -95 -698 0
8 64 -67 699 0
8 64 -67 -699 0
54 65 76 79 0
33 -47 51 700 0
51 -62 -67 -700 0
16 -23 -32 701 0
-32 -49 -54 -701 0
1 16 72 702 0
72 73 -702 703 0
73 -89 -703 704 0
-89 93 95 -704 0
-7 18 19 705 0
19 -34 -705 706 0
-34 -37 64 -706 0
21 -36 -45 -82 0
-17 29 -30 707 0
-30 96 99 -707 0
-21 23 24 708 0
24 -26 -708 709 0
-26 28 -709 710 0
28 29 -710 711 0
29 -31 -711 712 0
-31 -36 96 -712 0
-16 82 -88 -100 0
-74 95 713 714 0
-74 95 713 -714 0
-74 95 -713 714 0
-74 95 -713 -714 0
2 -25 -34 715 0
-34 46 -715 716 0
46 57 -75 -716 0
-9 -59 67 717 0
67 68 87 -717 0
-2 20 -38 73 0
12 -52 57 74 0
-6 -22 -30 718 0
-30 58 95 -718 0
6 -10 -49 719 0
-49 55 -719 720 0
55 77 91 -720 0
10 -21 32 721 0
32 -71 -78 -721 0
-44 -49 96 722 0
-44 -49 96 -722 0
2 13 -27 723 0
-27 -30 -723 724 0
-30 40 -724 725 0
40 66 98 -725 0
6 15 79 726 0
79 86 -726 727 0
86 95 97 -727 0
-2 -33 -42 728 0
-42 53 -728 729 0
53 54 -729 730 0
54 61 -730 731 0
61 -71 -98 -731 0
-25 44 -49 732 0
-49 60 -732 733 0
60 -77 82 -733 0
2 -19 60 734 0
60 64 -93 -734 0
-33 -46 65 -77 0
-48 67 100 735 0
-48 67 100 -735 0
45 55 69 736 0
69 -75 -736 737 0
-75 78 -737 738 0
78 96 -98 -738 0
-34 54 83 739 0
-34 54 83 -739 0
16 17 -22 740 0
-22 -36 -740 741 0
-36 44 -741 742 0
44 -46 -96 -742 0
58 100 743 744 0
58 100 743 -744 0
58 100 -743 744 0
58 100 -743 -744 0
-4 8 -40 51 0
23 -38 -43 745 0
-43 -47 -745 746 0
-47 60 -746 747 0
60 65 -747 748 0
65 -78 82 -748 0
-1 25 -32 -100 0
-1 8 43 749 0
43 -53 -64 -749 0
42 44 62 98 0
3 28 -59 750 0
3 28 -59 -750 0
17 67 70 -97 0
-53 56 -66 751 0
-53 56 -66 -751 0
40 41 72 752 0
40 41 72 -752 0
39 45 60 753 0
60 75 -753 754 0
75 82 -87 -754 0
1 -22 -39 -99 0
-12 31 36 755 0
36 45 -755 756 0
45 -57 -98 -756 0
-8 19 21 757 0
21 -42 -757 758 0
-42 -44 -758 759 0
-44 53 -759 760 0
53 -59 -63 -760 0
-11 62 67 -82 0
20 47 -82 761 0
20 47 -82 -761 0
-5 36 92 762 0
-5 36 92 -762 0
-59 -69 -92 99 0
25 28 -35 763 0
-35 41 -763 764 0
41 93 -97 -764 0
44 58 59 -94 0
7 -10 -34 765 0
-34 -38 -765 766 0
-38 66 -766 767 0
66 67 -767 768 0
67 -74 -768 769 0
-74 -79 -85 -769 0
21 23 40 770 0
40 -53 -770 771 0
-53 60 -771 772 0
60 -61 -98 -772 0
6 -16 32 773 0
32 -43 -773 774 0
-43 -75 -774 775 0
-75 -81 -94 -775 0
-15 60 67 -68 0
10 -29 -49 776 0
-49 54 -776 777 0
54 -61 -777 778 0
-61 -76 -778 779 0
-76 -80 -85 -779 0
-10 12 52 780 0
52 -78 -780 781 0
-78 -92 -781 782 0
-92 -96 -100 -782 0
63 70 -81 783 0
63 70 -81 -783 0
4 5 40 784 0
40 -53 -784 785 0
-53 -80 -785 786 0
-80 -83 96 -786 0
11 15 -21 787 0
-21 -45 -787 788 0
-45 92 -97 -788 0
-6 -23 49 789 0
49 -59 -789 790 0
-59 79 -790 791 0
79 81 -791 792 0
81 94 95 -792 0
74 87 90 92 0
3 -22 -63 793 0
-63 -86 -92 -793 0
-11 -21 -32 794 0
-32 75 -794 795 0
75 76 -82 -795 0
34 72 98 796 0
34 72 98 -796 0
-7 34 -55 797 0
-55 63 -797 798 0
63 85 91 -798 0
-4 -27 -46 799 0
-46 59 -100 -799 0
-1 91 800 801 0
-1 91 800 -801 0
-1 91 -800 801 0
-1 91 -800 -801 0
2 -3 -14 802 0
-14 -29 -802 803 0
-29 -32 -803 804 0
-32 -53 -804 805 0
-53 -65 -805 806 0
-65 89 90 -806 0
2 3 31 807 0
31 63 -807 808 0
63 -68 75 -808 0
11 -40 43 809 0
43 -52 -809 810 0
-52 -55 -810 811 0
-55 -91 -96 -811 0
5 34 -49 53 0
-9 18 -19 812 0
-19 -22 -100 -812 0
-24 34 87 813 0
-24 34 87 -813 0
-3 -10 -49 814 0
-3 -10 -49 -814 0
21 33 57 815 0
57 -58 -815 816 0
-58 75 -816 817 0
75 76 -817 818 0
76 87 95 -818 0
3 21 -27 819 0
-27 -71 -819 820 0
-71 75 -820 821 0
75 -83 -821 822 0
-83 86 -87 -822 0
6 -28 -32 823 0
-32 -44 -87 -823 0
5 68 -81 98 0
33 -64 -73 824 0
33 -64 -73 -824 0
15 -77 -79 85 0
-2 41 42 825 0
42 -51 -825 826 0
-51 -74 -80 -826 0
11 35 52 827 0
52 62 -827 828 0
62 63 -828 829 0
63 -66 -829 830 0
-66 -76 91 -830 0
5 -44 47 831 0
47 -53 56 -831 0
2 11 -49 65 0
55 -62 71 -78 0
-5 -22 40 832 0
-5 -22 40 -832 0
31 -35 -57 833 0
-57 60 -833 834 0
60 66 -834 835 0
66 -73 -835 836 0
-73 -76 97 -836 0
-9 12 -24 837 0
-24 37 -837 838 0
37 -42 -838 839 0
-42 -58 -839 840 0
-58 61 -840 841 0
61 -64 -94 -841 0
8 -30 -39 842 0
-39 50 -842 843 0
50 -51 -69 -843 0
-16 18 57 96 0
6 61 88 844 0
6 61 88 -844 0
-25 -51 845 846 0
-25 -51 845 -846 0
-25 -51 -845 846 0
-25 -51 -845 -846 0
-44 59 -96 847 0
-44 59 -96 -847 0
18 -24 -66 848 0
18 -24 -66 -848 0
11 -15 -34 849 0
-34 -43 -849 850 0
-43 63 -850 851 0
63 -77 -89 -851 0
-11 19 -57 852 0
-57 -71 -852 853 0
-71 77 84 -853 0
-5 18 43 854 0
-5 18 43 -854 0
-3 10 855 856 0
-3 10 855 -856 0
-3 10 -855 856 0
-3 10 -855 -856 0
18 28 -56 857 0
-56 72 -857 858 0
72 87 -93 -858 0
35 -36 -58 82 0
-48 -59 -64 859 0
-48 -59 -64 -859 0
-42 -97 860 861 0
-42 -97 860 -861 0
-42 -97 -860 861 0
-42 -97 -860 -861 0
38 -51 -66 862 0
38 -51 -66 -862 0
12 14 -22 863 0
-22 -40 -863 864 0
-40 43 -864 865 0
43 -53 -865 866 0
-53 68 86 -866 0
13 -50 -62 867 0
-62 -68 -867 868 0
-68 91 96 -868 0
53 93 98 869 0
53 93 98 -869 0
11 -31 45 870 0
45 -47 -67 -870 0
53 -54 66 871 0
53 -54 66 -871 0
19 35 37 872 0
37 -59 -872 873 0
-59 62 -873 874 0
62 64 -85 -874 0
42 -47 75 875 0
75 86 -875 876 0
86 -88 -92 -876 0
-20 -59 63 877 0
63 -80 93 -877 0
-5 -17 37 878 0
37 -47 -85 -878 0
-36 -45 51 879 0
-36 -45 51 -879 0
-4 8 -21 880 0
-21 45 -880 881 0
45 47 100 -881 0
-5 55 68 882 0
68 -88 -97 -882 0
-30 -59 -70 883 0
-70 -87 90 -883 0
1 -6 9 884 0
9 -48 -80 -884 0
-17 -28 39 -81 0
-27 32 -45 885 0
-45 63 -885 886 0
63 -73 -886 887 0
-73 77 -887 888 0
77 80 -888 889 0
80 -82 -91 -889 0
10 66 71 78 0
3 10 11 72 0
-5 8 -21 890 0
-21 -38 -890 891 0
-38 -75 85 -891 0
54 62 65 72 0
17 36 -42 892 0
-42 -59 -892 893 0
-59 -61 -100 -893 0
45 -62 -67 894 0
-67 70 -894 895 0
70 84 -95 -895 0
10 -35 53 896 0
53 56 -896 897 0
56 62 -78 -897 0
6 -40 -69 -95 0
11 -25 60 898 0
60 -62 95 -898 0
8 48 69 70 0
9 50 65 899 0
65 77 99 -899 0
64 -67 900 901 0
64 -67 900 -901 0
64 -67 -900 901 0
64 -67 -900 -901 0
1 32 -49 902 0
-49 -93 -97 -902 0
5 -28 -32 -44 0
-23 25 -26 903 0
-26 36 -903 904 0
36 -40 -904 905 0
-40 -43 -905 906 0
-43 47 -83 -906 0
-7 46 70 907 0
70 73 -907 908 0
73 76 -79 -908 0
4 -9 85 -96 0
-13 18 22 909 0
22 -34 -909 910 0
-34 36 -910 911 0
36 40 86 -911 0
-19 41 45 912 0
45 57 -74 -912 0
-6 -58 -77 94 0
-38 87 97 913 0
-38 87 97 -913 0
22 83 87 -90 0
-2 13 19 914 0
19 22 -914 915 0
22 24 -915 916 0
24 -38 -54 -916 0
-16 -21 -34 87 0
3 -6 -19 917 0
-19 -61 -917 918 0
-61 -66 -918 919 0
-66 -73 -92 -919 0
-13 -36 98 920 0
-13 -36 98 -920 0
25 87 -89 -92 0
44 68 -78 921 0
44 68 -78 -921 0
18 19 -34 922 0
-34 72 80 -922 0
16 32 923 924 0
16 32 923 -924 0
16 32 -923 924 0
16 32 -923 -924 0
6 86 -95 925 0
6 86 -95 -925 0
-30 77 -89 926 0
-89 93 -926 927 0
93 95 -98 -927 0
-52 87 93 928 0
-52 87 93 -928 0
-19 -23 -27 929 0
-27 54 -78 -929 0
-56 -66 77 78 0
8 -13 -30 930 0
-30 37 -930 931 0
37 42 -931 932 0
42 -47 -932 933 0
-47 57 -933 934 0
57 -78 91 -934 0
-1 5 11 935 0
11 22 -935 936 0
22 31 74 -936 0
12 -15 21 937 0
21 -27 -937 938 0
-27 47 -938 939 0
47 94 -96 -939 0
48 65 -83 940 0
-83 -96 100 -940 0
-33 -53 -56 -72 0
-20 -50 -59 -79 0
38 49 -50 941 0
-50 -60 -941 942 0
-60 -63 -942 943 0
-63 66 -943 944 0
66 -74 -76 -944 0
-33 48 70 945 0
70 -93 -97 -945 0
3 31 -41 946 0
-41 -49 -946 947 0
-49 -54 -947 948 0
-54 -86 99 -948 0
-24 -77 -79 949 0
-24 -77 -79 -949 0
-16 29 950 951 0
-16 29 950 -951 0
-16 29 -950 951 0
-16 29 -950 -951 0
-32 36 -88 -91 0
5 28 33 92 0
-40 -80 952 953 0
-40 -80 952 -953 0
-40 -80 -952 953 0
-40 -80 -952 -953 0
-15 20 86 954 0
-15 20 86 -954 0
10 52 86 -100 0
4 -10 32 955 0
32 33 -955 956 0
33 -45 -956 957 0
-45 -75 -87 -957 0
-15 29 32 958 0
32 34 66 -958 0
18 38 41 959 0
41 42 -959 960 0
42 -74 -960 961 0
-74 76 -961 962 0
76 -96 100 -962 0
-6 28 -98 963 0
-6 28 -98 -963 0
15 26 -72 92 0
-31 34 -83 964 0
-31 34 -83 -964 0
47 -99 965 966 0
47 -99 965 -966 0
47 -99 -965 966 0
47 -99 -965 -966 0
4 23 25 967 0
25 27 -967 968 0
27 62 -968 969 0
62 -71 -969 970 0
-71 74 -970 971 0
74 94 95 -971 0
21 26 -68 972 0
21 26 -68 -972 0
-12 -22 973 974 0
-12 -22 973 -974 0
-12 -22 -973 974 0
-12 -22 -973 -974 0
50 -59 -71 -99 0
-23 82 93 975 0
-23 82 93 -975 0
-32 41 51 976 0
51 -81 87 -976 0
-8 10 15 977 0
15 -21 -977 978 0
-21 77 -978 979 0
77 96 97 -979 0
18 -20 -53 980 0
-53 -73 -980 981 0
-73 84 -89 -981 0
2 -17 19 55 0
-25 -47 -57 100 0
-20 -43 -58 982 0
-20 -43 -58 -982 0
-2 -15 37 76 0
3 -34 -36 983 0
-36 -59 -983 984 0
-59 61 -62 -984 0
-4 40 78 985 0
78 -79 -93 -985 0
-21 52 79 986 0
79 88 -100 -986 0
17 73 -76 987 0
17 73 -76 -987 0
63 74 85 88 0
42 -56 60 988 0
60 -71 -76 -988 0
2 4 25 989 0
25 -32 -989 990 0
-32 -41 -990 991 0
-41 -58 -63 -991 0
10 25 81 992 0
81 82 -98 -992 0
-16 27 28 993 0
28 -43 -993 994 0
-43 -46 73 -994 0
5 8 30 995 0
30 -45 -995 996 0
-45 -54 -91 -996 0
5 -26 38 -39 0
-9 -30 32 997 0
32 33 -997 998 0
33 -35 -998 999 0
-35 37 -999 1000 0
37 38 -1000 1001 0
38 -40 -45 -1001 0
4 -25 91 -97 0
11 -34 -43 1002 0
-43 55 -1002 1003 0
55 66 -84 -1003 0
-18 -68 76 1004 0
76 77 96 -1004 0
-11 29 -47 82 0
4 21 -61 1005 0
-61 66 83 -1005 0
-15 -31 -39 67 0
15 -19 -58 1006 0
-58 64 -1006 1007 0
64 86 100 -1007 0
5 19 -30 1008 0
-30 41 -1008 1009 0
41 -80 -87 -1009 0
7 -53 -58 1010 0
7 -53 -58 -1010 0
4 6 11 1011 0
11 22 -1011 1012 0
22 -36 -1012 1013 0
-36 -39 -1013 1014 0
-39 49 75 -1014 0
-7 15 24 1015 0
24 88 95 -1015 0
-11 -42 -51 1016 0
-51 62 -1016 1017 0
62 63 -1017 1018 0
63 70 -80 -1018 0
-2 -34 53 1019 0
53 -58 -1019 1020 0
-58 69 -1020 1021 0
69 -86 91 -1021 0
11 -28 69 73 0
9 -42 -55 1022 0
-55 74 -86 -1022 0
5 -7 -57 76 0
54 64 78 1023 0
78 -84 87 -1023 0
-5 -43 63 92 0
25 26 -31 1024 0
-31 -45 -1024 1025 0
-45 53 -55 -1025 0
9 37 1026 1027 0
9 37 1026 -1027 0
9 37 -1026 1027 0
9 37 -1026 -1027 0
-13 17 -49 60 0
-9 32 -47 1028 0
-47 -52 -1028 1029 0
-52 -56 -1029 1030 0
-56 69 -1030 1031 0
69 74 -1031 1032 0
74 -87 91 -1032 0
-10 34 -41 1033 0
-10 34 -41 -1033 0
7 -10 17 1034 0
17 52 -1034 1035 0
52 -62 -73 -1035 0
51 53 71 1036 0
51 53 71 -1036 0
-6 12 37 -68 0
26 76 79 1037 0
26 76 79 -1037 0
-62 65 -75 1038 0
-62 65 -75 -1038 0
49 50 81 1039 0
49 50 81 -1039 0
-8 48 54 1040 0
54 69 -1040 1041 0
69 84 -1041 1042 0
84 91 -96 -1042 0
-7 10 -31 -48 0
-21 40 45 1043 0
45 54 -66 -1043 0
-17 28 30 1044 0
30 -51 -1044 1045 0
-51 -53 -1045 1046 0
-53 62 -1046 1047 0
62 -68 -72 -1047 0
-20 71 76 -91 0
1 29 56 -91 0
-1 8 -14 45 0
2 -6 -68 -78 0
-3 34 37 1048 0
37 -44 50 -1048 0
53 67 68 1049 0
53 67 68 -1049 0
-7 16 -19 1050 0
-19 -43 -1050 1051 0
-43 -47 -1051 1052 0
-47 75 -1052 1053 0
75 76 -1053 1054 0
76 -83 -1054 1055 0
-83 -88 -94 -1055 0
-3 30 32 1056 0
32 49 -1056 1057 0
49 -62 -1057 1058 0
-62 69 -70 -1058 0
15 -25 41 1059 0
41 -52 -1059 1060 0
-52 -84 -90 -1060 0
-24 69 76 -77 0
-1 -5 -9 1061 0
-9 19 -1061 1062 0
19 -38 -1062 1063 0
-38 -58 -1063 1064 0
-58 63 -1064 1065 0
63 -70 -1065 1066 0
-70 -85 -1066 1067 0
-85 -89 -94 -1067 0
-19 21 61 -87 0
5 72 79 -90 0
1 -6 13 1068 0
13 14 -1068 1069 0
14 49 -1069 1070 0
49 -62 -1070 1071 0
-62 -89 -92 -1071 0
3 4 20 1072 0
20 24 -1072 1073 0
24 -30 -54 -1073 0
1 -15 -32 1074 0
-32 58 -1074 1075 0
58 -68 -1075 1076 0
-68 88 90 -1076 0
-1 83 96 99 0
12 -31 -72 -95 0
7 -20 -30 1077 0
-30 -41 -1077 1078 0
-41 84 -1078 1079 0
84 85 -91 -1079 0
43 81 1080 1081 0
43 81 1080 -1081 0
43 81 -1080 1081 0
43 81 -1080 -1081 0
-9 -16 43 1082 0
43 -64 -1082 1083 0
-64 72 -1083 1084 0
72 94 100 -1084 0
-13 -36 -55 68 0
-10 100 1085 1086 0
-10 100 1085 -1086 0
-10 100 -1085 1086 0
-10 100 -1085 -1086 0
11 -12 -23 1087 0
-23 -38 -1087 1088 0
-38 -41 -1088 1089 0
-41 -62 -1089 1090 0
-62 -74 -1090 1091 0
-74 98 99 -1091 0
-5 11 12 1092 0
12 40 -1092 1093 0
40 72 -1093 1094 0
72 -77 84 -1094 0
20 -49 52 1095 0
52 -61 -1095 1096 0
-61 -64 -100 -1096 0
-9 14 43 1097 0
43 -58 62 -1097 0
-18 27 -28 -31 0
-33 43 96 1098 0
-33 43 96 -1098 0
4 -12 -19 -58 0
30 42 66 1099 0
66 -67 -1099 1100 0
-67 84 -1100 1101 0
84 85 96 -1101 0
12 30 -36 1102 0
-36 -80 -1102 1103 0
-80 84 -1103 1104 0
84 -92 -1104 1105 0
-92 95 -96 -1105 0
15 -37 -41 1106 0
-41 -53 -96 -1106 0
7 31 1107 1108 0
7 31 1107 -1108 0
7 31 -1107 1108 0
7 31 -1107 -1108 0
14 77 -90 1109 0
14 77 -90 -1109 0
42 -73 -82 1110 0
42 -73 -82 -1110 0
24 -86 -88 94 0
-11 50 51 1111 0
51 -60 -1111 1112 0
-60 -83 -89 -1112 0
20 44 61 1113 0
61 71 -1113 1114 0
71 72 -1114 1115 0
72 -75 -1115 1116 0
-75 -85 100 -1116 0
14 -53 56 1117 0
56 -62 65 -1117 0
11 20 -58 74 0
64 -71 80 -87 0
6 -14 -31 49 0
-3 40 -44 1118 0
-44 -66 -1118 1119 0
-66 69 -1119 1120 0
69 75 -1120 1121 0
75 -82 -85 -1121 0
-18 21 -33 1122 0
-33 46 -1122 1123 0
46 -51 -1123 1124 0
-51 -67 -1124 1125 0
-67 70 -73 -1125 0
5 17 -39 1126 0
-39 -48 -1126 1127 0
-48 59 -1127 1128 0
59 -60 -78 -1128 0
-25 27 66 1129 0
-25 27 66 -1129 0
15 70 97 1130 0
15 70 97 -1130 0
-5 -34 -60 1131 0
-5 -34 -60 -1131 0
-53 68 1132 1133 0
-53 68 1132 -1133 0
-53 68 -1132 1133 0
-53 68 -1132 -1133 0
27 -33 -75 1134 0
27 -33 -75 -1134 0
20 -24 -43 1135 0
-43 -52 -1135 1136 0
-52 72 -1136 1137 0
72 -86 -98 -1137 0
-20 28 -66 1138 0
-66 -80 -1138 1139 0
-80 86 93 -1139 0
-14 27 52 1140 0
-14 27 52 -1140 0
-2 -12 19 1141 0
-2 -12 19 -1141 0
27 37 -65 1142 0
-65 81 96 -1142 0
44 -45 -67 91 0
-6 -57 -68 -73 0
47 -60 -75 1143 0
47 -60 -75 -1143 0
5 21 23 1144 0
23 -31 -1144 1145 0
-31 -49 -1145 1146 0
-49 52 -1146 1147 0
52 -62 -1147 1148 0
-62 77 95 -1148 0
2 7 22 1149 0
22 -59 -1149 1150 0
-59 -71 -1150 1151 0
-71 -77 100 -1151 0
20 -40 54 1152 0
54 -56 -76 -1152 0
62 -63 75 1153 0
62 -63 75 -1153 0
-1 28 44 1154 0
44 46 -1154 1155 0
46 -68 -1155 1156 0
-68 71 -1156 1157 0
71 73 -94 -1157 0
2 51 -56 1158 0
-56 84 -1158 1159 0
84 95 -97 -1159 0
-29 -68 72 -89 0
-14 -26 46 1160 0
46 -56 -94 -1160 0
9 -45 -54 60 0
-6 -13 17 1161 0
17 -30 -1161 1162 0
-30 54 56 -1162 0
-14 64 77 -97 0
-39 -68 -79 1163 0
-79 -96 99 -1163 0
10 -15 18 1164 0
18 -57 -89 -1164 0
-26 -37 48 -90 0
-36 41 -54 1165 0
-54 72 -1165 1166 0
72 -82 -1166 1167 0
-82 86 -1167 1168 0
86 89 -1168 1169 0
89 -91 -100 -1169 0
19 75 80 87 0
12 19 20 81 0
-14 17 -30 1170 0
-30 -47 -1170 1171 0
-47 -84 94 -1171 0
-9 63 71 1172 0
71 74 81 -1172 0
-4 26 45 1173 0
45 -51 -1173 1174 0
-51 -68 -70 -1174 0
54 -71 -76 1175 0
-76 79 93 -1175 0
-4 19 -44 1176 0
-44 62 -1176 1177 0
62 65 -1177 1178 0
65 71 -87 -1178 0
4 15 -49 -78 0
20 -34 69 -71 0
8 17 57 1179 0
57 78 79 -1179 0
18 59 74 86 0
-7 73 -76 1180 0
-7 73 -76 -1180 0
-2 -6 1181 1182 0
-2 -6 1181 -1182 0
-2 -6 -1181 1182 0
-2 -6 -1181 -1182 0
10 41 -58 1183 0
10 41 -58 -1183 0
14 -37 -41 -53 0
-32 34 -35 1184 0
-35 45 -1184 1185 0
45 -49 -1185 1186 0
-49 -52 -1186 1187 0
-52 56 -92 -1187 0
-5 -16 55 1188 0
55 79 -1188 1189 0
79 82 -1189 1190 0
82 85 -88 -1190 0
13 -18 94 1191 0
13 -18 94 -1191 0
-22 27 31 1192 0
31 -43 -1192 1193 0
-43 45 -1193 1194 0
45 49 95 -1194 0
3 -28 50 1195 0
50 54 -1195 1196 0
54 66 -83 -1196 0
6 -15 -67 -86 0
-47 96 1197 1198 0
-47 96 1197 -1198 0
-47 96 -1197 1198 0
-47 96 -1197 -1198 0
31 92 96 -99 0
-11 22 28 1199 0
28 31 -1199 1200 0
31 33 -1200 1201 0
33 -47 -63 -1201 0
-1 -25 -30 1202 0
-30 -43 96 -1202 0
7 12 -15 1203 0
-15 -28 -1203 1204 0
-28 -70 -1204 1205 0
-70 -75 -82 -1205 0
-1 -22 -45 1206 0
-1 -22 -45 -1206 0
34 96 -98 1207 0
34 96 -98 -1207 0
53 77 -87 1208 0
53 77 -87 -1208 0
27 28 -43 1209 0
-43 81 89 -1209 0
-4 25 41 1210 0
-4 25 41 -1210 0
2 4 -7 1211 0
-7 15 95 -1211 0
2 -39 86 -98 0
-61 96 1212 1213 0
-61 96 1212 -1213 0
-61 96 -1212 1213 0
-61 96 -1212 -1213 0
-28 -32 -36 1214 0
-36 63 -87 -1214 0
-65 -75 86 87 0
17 -22 -39 1215 0
-39 46 -1215 1216 0
46 51 -1216 1217 0
51 -56 -1217 1218 0
-56 66 -1218 1219 0
66 -87 100 -1219 0
3 -5 -10 1220 0
-10 14 -1220 1221 0
14 20 -1221 1222 0
20 31 -1222 1223 0
31 40 83 -1223 0
-5 9 21 1224 0
21 -24 -1224 1225 0
-24 30 -1225 1226 0
30 -36 56 -1226 0
57 74 -92 1227 0
57 74 -92 -1227 0
-42 -62 -65 -81 0
-29 -59 -68 -88 0
-2 -6 47 1228 0
47 58 -1228 1229 0
58 -59 -1229 1230 0
-59 -69 -1230 1231 0
-69 -72 -1231 1232 0
-72 75 -1232 1233 0
75 -83 -85 -1233 0
8 -42 57 79 0
12 40 -50 1234 0
-50 -58 -1234 1235 0
-58 -63 -95 -1235 0
-33 -86 -88 1236 0
-33 -86 -88 -1236 0
-25 38 1237 1238 0
-25 38 1237 -1238 0
-25 38 -1237 1238 0
-25 38 -1237 -1238 0
1 -41 45 1239 0
45 -97 -100 -1239 0
14 37 42 1240 0
14 37 42 -1240 0
-49 -89 1241 1242 0
-49 -89 1241 -1242 0
-49 -89 -1241 1242 0
-49 -89 -1241 -1242 0
-9 -24 29 95 0
19 61 95 1243 0
19 61 95 -1243 0
13 -19 41 1244 0
41 42 -1244 1245 0
42 -54 -1245 1246 0
-54 -84 -96 -1246 0
-5 9 -24 1247 0
-24 38 -1247 1248 0
38 41 -1248 1249 0
41 43 75 -1249 0
-7 27 47 1250 0
47 50 -1250 1251 0
50 51 -1251 1252 0
51 -83 85 -1252 0
1 -15 37 1253 0
1 -15 37 -1253 0
24 35 -81 1254 0
24 35 -81 -1254 0
-8 -40 43 -92 0
3 4 56 1255 0
3 4 56 -1255 0
13 32 34 1256 0
34 36 -1256 1257 0
36 71 -1257 1258 0
71 -80 83 -1258 0
30 35 -77 1259 0
30 35 -77 -1259 0
-8 -21 -31 1260 0
-8 -21 -31 -1260 0
2 59 -68 -80 0
-32 91 1261 1262 0
-32 91 1261 -1262 0
-32 91 -1261 1262 0
-32 91 -1261 -1262 0
5 6 -41 1263 0
-41 50 -1263 1264 0
50 60 -1264 1265 0
60 -90 96 -1265 0
-17 19 24 1266 0
24 -30 86 -1266 0
27 -29 -62 1267 0
-62 -82 -1267 1268 0
-82 93 -98 -1268 0
9 11 -26 1269 0
-26 28 64 -1269 0
-34 -56 -66 1270 0
-34 -56 -66 -1270 0
-29 -52 -67 1271 0
-29 -52 -67 -1271 0
-11 -24 46 85 0
-2 12 -43 1272 0
-43 -45 -1272 1273 0
-45 -68 -1273 1274 0
-68 70 -71 -1274 0
-9 -13 49 1275 0
49 87 -88 -1275 0
-30 61 88 97 0
26 82 -85 1276 0
26 82 -85 -1276 0
72 83 94 97 0
51 -65 69 1277 0
69 -80 -85 -1277 0
-7 11 13 1278 0
13 34 -1278 1279 0
34 -41 -1279 1280 0
-41 -50 -1280 1281 0
-50 -67 -72 -1281 0
19 34 90 91 0
-25 36 37 1282 0
37 -52 -1282 1283 0
-52 -55 82 -1283 0
14 17 39 1284 0
39 -54 -1284 1285 0
-54 -63 -100 -1285 0
14 -35 47 -48 0
-6 -18 -39 1286 0
-39 41 -1286 1287 0
41 42 -1287 1288 0
42 -44 -1288 1289 0
-44 46 -1289 1290 0
46 47 -1290 1291 0
47 -49 -54 -1291 0
13 -34 100 1292 0
13 -34 100 -1292 0
5 20 -43 1293 0
-43 -52 -1293 1294 0
-52 64 -1294 1295 0
64 75 -93 -1295 0
-27 -77 85 86 0
-20 38 -56 91 0
13 30 -70 1296 0
-70 75 92 -1296 0
9 -24 -40 1297 0
-40 -48 76 -1297 0
24 -28 -67 1298 0
-67 73 95 -1298 0
14 28 -39 1299 0
-39 50 -1299 1300 0
50 -89 -96 -1300 0
16 -62 -67 1301 0
16 -62 -67 -1301 0
4 13 15 1302 0
15 20 -1302 1303 0
20 31 -1303 1304 0
31 -45 -1304 1305 0
-45 -48 -1305 1306 0
-48 58 84 -1306 0
-16 24 33 97 0
-20 -51 -60 1307 0
-60 71 -1307 1308 0
71 72 -1308 1309 0
72 79 -89 -1309 0
-11 -43 62 1310 0
62 -67 -1310 1311 0
-67 78 -1311 1312 0
78 -95 100 -1312 0
20 -37 78 82 0
18 -51 -64 1313 0
-64 83 -95 -1313 0
14 -16 -66 85 0
1 63 73 1314 0
73 87 -1314 1315 0
87 -93 96 -1315 0
-14 -52 72 1316 0
-14 -52 72 -1316 0
34 35 -40 1317 0
-40 -54 -1317 1318 0
-54 62 -64 -1318 0
18 46 1319 1320 0
18 46 1319 -1320 0
18 46 -1319 1320 0
18 46 -1319 -1320 0
-22 26 -58 69 0
-18 41 -56 1321 0
-56 -61 -1321 1322 0
-61 -65 -1322 1323 0
-65 78 -1323 1324 0
78 83 -1324 1325 0
83 -96 100 -1325 0
-19 43 -50 1326 0
-19 43 -50 -1326 0
16 -19 26 1327 0
26 61 -1327 1328 0
61 -71 -82 -1328 0
60 62 80 1329 0
60 62 80 -1329 0
-15 21 46 -77 0
35 85 88 1330 0
35 85 88 -1330 0
-71 74 -84 1331 0
-71 74 -84 -1331 0
-5 58 59 90 0
-17 57 63 1332 0
63 78 -1332 1333 0
78 93 100 -1333 0
-16 19 -40 -57 0
-30 49 54 1334 0
54 63 -75 -1334 0
-26 37 39 1335 0
39 -60 -1335 1336 0
-60 -62 -1336 1337 0
-62 71 -1337 1338 0
71 -77 -81 -1338 0
-29 80 85 -100 0
10 38 65 -100 0
-10 17 -23 54 0
11 -15 -77 -87 0
-12 43 46 1339 0
46 -53 59 -1339 0
-3 62 76 77 0
-16 25 -28 1340 0
-28 -52 -1340 1341 0
-52 -56 -1341 1342 0
-56 84 -1342 1343 0
84 85 -1343 1344 0
85 -92 -97 -1344 0
-12 39 41 1345 0
41 58 -1345 1346 0
58 -71 -1346 1347 0
-71 78 -79 -1347 0
24 -34 50 1348 0
50 -61 -1348 1349 0
-61 -93 -99 -1349 0
-3 -33 78 1350 0
78 85 -86 -1350 0
-10 -14 -18 1351 0
-18 28 -1351 1352 0
28 -47 -1352 1353 0
-47 -67 -1353 1354 0
-67 72 -1354 1355 0
72 -79 -1355 1356 0
-79 -94 -98 -1356 0
-28 30 70 -96 0
-1 14 81 1357 0
81 88 -99 -1357 0
10 -15 22 1358 0
22 23 -1358 1359 0
23 58 -1359 1360 0
58 -71 -98 -1360 0
12 13 29 1361 0
29 33 -1361 1362 0
33 -39 -63 -1362 0
5 8 10 1363 0
10 -24 -1363 1364 0
-24 -41 -1364 1365 0
-41 67 -1365 1366 0
67 -77 -1366 1367 0
-77 97 99 -1367 0
-4 -10 92 1368 0
-4 -10 92 -1368 0
21 -40 -81 1369 0
21 -40 -81 -1369 0
16 -29 -39 1370 0
-39 -50 -1370 1371 0
-50 93 -1371 1372 0
93 94 -100 -1372 0
3 9 52 90 0
-18 -25 52 1373 0
52 -73 81 -1373 0
9 -22 -45 1374 0
-45 -64 77 -1374 0
7 8 -19 1375 0
7 8 -19 -1375 0
20 -21 -32 1376 0
-32 -47 -1376 1377 0
-47 -50 -1377 1378 0
-50 -71 -83 -1378 0
-9 -14 20 1379 0
20 21 -1379 1380 0
21 49 -1380 1381 0
49 81 -1381 1382 0
81 -86 93 -1382 0
29 -58 61 1383 0
61 -70 -73 -1383 0
-18 23 52 1384 0
52 -67 71 -1384 0
5 -27 36 1385 0
36 -37 -40 -1385 0
-42 52 1386 1387 0
-42 52 1386 -1387 0
-42 52 -1386 1387 0
-42 52 -1386 -1387 0
5 13 -21 1388 0
-21 -28 -67 -1388 0
-1 4 -5 1389 0
-5 39 -1389 1390 0
39 51 -1390 1391 0
51 75 -1391 1392 0
75 -76 -1392 1393 0
-76 93 94 -1393 0
-5 21 39 1394 0
39 -45 -1394 1395 0
-45 -89 93 -1395 0
24 -46 -50 -62 0
16 40 1396 1397 0
16 40 1396 -1397 0
16 40 -1396 1397 0
16 40 -1396 -1397 0
23 86 -99 1398 0
23 86 -99 -1398 0
3 51 -82 -91 0
33 -95 -97 1399 0
33 -95 -97 -1399 0
9 -20 59 1400 0
59 60 -1400 1401 0
60 -69 -1401 1402 0
-69 -92 -98 -1402 0
29 53 70 1403 0
70 80 -1403 1404 0
80 81 -1404 1405 0
81 -84 -94 -1405 0
23 -62 65 1406 0
65 -71 74 -1406 0
20 29 -67 83 0
73 -80 89 -96 0
15 -23 -40 58 0
-12 49 -53 1407 0
-53 -75 -1407 1408 0
-75 78 -1408 1409 0
78 84 -1409 1410 0
84 -91 -94 -1410 0
-27 30 -42 1411 0
-42 55 -1411 1412 0
55 -60 -1412 1413 0
-60 -76 -1413 1414 0
-76 79 -82 -1414 0
14 26 -48 1415 0
-48 -57 -1415 1416 0
-57 68 -1416 1417 0
68 -69 -87 -1417 0
6 -34 36 75 0
24 79 1418 1419 0
24 79 1418 -1419 0
24 79 -1418 1419 0
24 79 -1418 -1419 0
-14 -43 -69 1420 0
-14 -43 -69 -1420 0
-62 77 1421 1422 0
-62 77 1421 -1422 0
-62 77 -1421 1422 0
-62 77 -1421 -1422 0
-7 36 -42 -84 0
2 29 -33 1423 0
-33 -52 -1423 1424 0
-52 -61 -1424 1425 0
-61 81 -95 -1425 0
-29 37 -75 1426 0
-75 -89 95 -1426 0
-23 36 61 1427 0
-23 36 61 -1427 0
5 -11 -21 28 0
36 46 -74 90 0
53 -54 -76 100 0
-15 -66 -77 -82 0
4 56 -69 -84 0
9 14 30 1428 0
30 32 -1428 1429 0
32 -40 -1429 1430 0
-40 -58 -1430 1431 0
-58 61 -1431 1432 0
61 -71 86 -1432 0
11 16 31 1433 0
31 -68 -1433 1434 0
-68 -80 -86 -1434 0
29 -49 63 1435 0
63 -65 -85 -1435 0
